30 3000
1 487
2 480
3 478
4 476
5 465
6 454
7 432
8 422
9 412
10 410
11 410
12 407
13 406
14 392
15 380
16 378
17 373
18 370
19 370
20 366
21 365
22 365
23 362
24 353
25 330
26 329
27 327
28 326
29 324
30 322
